
Welcome to IBM(R) ILOG(R) CPLEX(R) Interactive Optimizer 22.1.1.0
  with Simplex, Mixed Integer & Barrier Optimizers
5725-A06 5725-A29 5724-Y48 5724-Y49 5724-Y54 5724-Y55 5655-Y21
Copyright IBM Corp. 1988, 2022.  All Rights Reserved.

Type 'help' for a list of available commands.
Type 'help' followed by a command name for more
information on commands.

CPLEX> Selected objective sense:  MINIMIZE
Selected objective  name:  00000000
Selected RHS        name:  RHS1
Selected bound      name:  BOUND
Problem 'ee.mps' read.
Read time = 0.04 sec. (3.17 ticks)
CPLEX> New value for time limit in seconds: 7200
CPLEX> New value for parallel optimization mode: -1
CPLEX> New value for default parallel thread count: 40
CPLEX> New value for mixed integer optimality gap tolerance: 1e-13
CPLEX> Version identifier: 22.1.1.0 | 2022-11-28 | 9160aff4d
CPXPARAM_Threads                                 40
CPXPARAM_Parallel                                -1
CPXPARAM_TimeLimit                               7200
CPXPARAM_MIP_Tolerances_MIPGap                   1e-13
Found incumbent of value 0.000000 after 0.00 sec. (0.31 ticks)
Tried aggregator 2 times.
MIP Presolve eliminated 183 rows and 2745 columns.
MIP Presolve modified 6090 coefficients.
Aggregator did 713 substitutions.
Reduced MIP has 3636 rows, 7840 columns, and 28953 nonzeros.
Reduced MIP has 7840 binaries, 0 generals, 0 SOSs, and 0 indicators.
Presolve time = 0.07 sec. (69.14 ticks)
Probing time = 0.03 sec. (5.33 ticks)
Tried aggregator 1 time.
Detecting symmetries...
Reduced MIP has 3636 rows, 7840 columns, and 28953 nonzeros.
Reduced MIP has 7840 binaries, 0 generals, 0 SOSs, and 0 indicators.
Presolve time = 0.02 sec. (22.10 ticks)
Probing time = 0.02 sec. (5.12 ticks)
Clique table members: 18788.
MIP emphasis: balance optimality and feasibility.
MIP search method: dynamic search.
Parallel mode: opportunistic, using up to 40 threads.
Root relaxation solution time = 0.20 sec. (170.28 ticks)

        Nodes                                         Cuts/
   Node  Left     Objective  IInf  Best Integer    Best Bound    ItCnt     Gap

*     0+    0                            0.0000  -1.54000e+13              --- 
*     0+    0                      -4.80000e+12  -1.54000e+13           220.83%
*     0+    0                      -6.00000e+12  -1.54000e+13           156.67%
      0     0  -1.53900e+13   132  -6.00000e+12  -1.53900e+13     3241  156.50%
*     0+    0                      -7.20000e+12  -1.53900e+13           113.75%
*     0+    0                      -1.53900e+13  -1.53900e+13             0.00%
      0     0  -1.53900e+13   250  -1.53900e+13     Cuts: 103     3889    0.00%
      0     0  -1.53900e+13   281  -1.53900e+13      Cuts: 67     4229    0.00%
*     0+    0                      -1.53900e+13  -1.53900e+13             0.00%
*     0+    0                      -1.53900e+13  -1.53900e+13             0.00%
*     0+    0                      -1.53900e+13  -1.53900e+13             0.00%
      0     0  -1.00000e+75     0  -1.53900e+13  -1.53900e+13     4229    0.00%
      0    32    infeasible        -1.53900e+13  -1.53900e+13    22343    0.00%
Elapsed time = 2.74 sec. (1444.95 ticks, tree = 0.02 MB, solutions = 8)
    109    55  -1.53900e+13    48  -1.53900e+13  -1.53900e+13    36294    0.00%
    438    38  -1.53900e+13   317  -1.53900e+13  -1.53900e+13    26773    0.00%
    827    77  -1.53900e+13    38  -1.53900e+13  -1.53900e+13    42719    0.00%
   1121    93        cutoff        -1.53900e+13  -1.53900e+13    71361    0.00%
   1350   119  -1.53900e+13   252  -1.53900e+13  -1.53900e+13   103737    0.00%
   1540   138  -1.53900e+13   199  -1.53900e+13  -1.53900e+13   143343    0.00%
   1742   196  -1.53900e+13   177  -1.53900e+13  -1.53900e+13   302951    0.00%
   1965   207        cutoff        -1.53900e+13  -1.53900e+13   205472    0.00%
   2196   220  -1.53900e+13    91  -1.53900e+13  -1.53900e+13   255296    0.00%
   4414   180  -1.53900e+13    74  -1.53900e+13  -1.53900e+13   374127    0.00%
Elapsed time = 8.36 sec. (4559.74 ticks, tree = 0.72 MB, solutions = 8)
   7910   235  -1.53900e+13     9  -1.53900e+13  -1.53900e+13   674502    0.00%
  10973   431        cutoff        -1.53900e+13  -1.53900e+13   756936    0.00%
  13128   467        cutoff        -1.53900e+13  -1.53900e+13   772455    0.00%

Performing restart 1

Repeating presolve.
Tried aggregator 2 times.
MIP Presolve eliminated 29 rows and 21 columns.
MIP Presolve modified 1865 coefficients.
Aggregator did 4 substitutions.
Reduced MIP has 3527 rows, 7815 columns, and 28275 nonzeros.
Reduced MIP has 7815 binaries, 0 generals, 0 SOSs, and 0 indicators.
Presolve time = 0.04 sec. (39.87 ticks)
Tried aggregator 2 times.
MIP Presolve eliminated 8 rows and 35 columns.
MIP Presolve modified 28 coefficients.
Aggregator did 18 substitutions.
Reduced MIP has 3501 rows, 7756 columns, and 28059 nonzeros.
Reduced MIP has 7756 binaries, 0 generals, 0 SOSs, and 0 indicators.
Presolve time = 0.05 sec. (54.31 ticks)
Represolve time = 0.21 sec. (152.75 ticks)
  13456     0  -1.53900e+13   418  -1.53900e+13      Cuts: 42   921960    0.00%
  13456     0  -1.53900e+13   399  -1.53900e+13      Cuts: 53   922537    0.00%
  13456     0  -1.53900e+13   355  -1.53900e+13      Cuts: 67   923128    0.00%
  13456     0  -1.53900e+13   372  -1.53900e+13      Cuts: 32   923808    0.00%
  13456     0  -1.53900e+13   425  -1.53900e+13      Cuts: 55   924221    0.00%
  13456     0  -1.53900e+13   429  -1.53900e+13      Cuts: 79   924757    0.00%
  13456     0  -1.53900e+13   427  -1.53900e+13      Cuts: 31   925105    0.00%
  13456    14        cutoff        -1.53900e+13  -1.53900e+13   946084    0.00%
  14526    82  -1.53900e+13   158  -1.53900e+13  -1.53900e+13   969801    0.00%
  14874    81        cutoff        -1.53900e+13  -1.53900e+13   969325    0.00%

GUB cover cuts applied:  15
Clique cuts applied:  9
Cover cuts applied:  353
Mixed integer rounding cuts applied:  20
Zero-half cuts applied:  55
Lift and project cuts applied:  6
Gomory fractional cuts applied:  21

Root node processing (before b&c):
  Real time             =    1.65 sec. (1434.69 ticks)
Parallel b&c, 40 threads:
  Real time             =   20.08 sec. (14169.34 ticks)
  Sync time (average)   =    4.29 sec.
  Wait time (average)   =    0.16 sec.
                          ------------
Total (root+branch&cut) =   21.74 sec. (15604.02 ticks)

Solution pool: 8 solutions saved.

MIP - Integer optimal solution:  Objective = -1.5389998088e+13
Solution time =   21.85 sec.  Iterations = 986941  Nodes = 14969
Deterministic time = 15604.06 ticks  (714.10 ticks/sec)

CPLEX> Solution 'p9' written to file 'ee.sol'.
CPLEX> 